p cnf 12 50 
11 4 6 0
1 -9 7 0
1 12 -4 0
-3 8 -2 0
6 -7 9 0
8 10 -7 0
-1 4 -11 0
-5 -3 7 0
9 -6 10 0
10 5 -6 0
-9 -6 1 0
-9 4 12 0
5 8 -1 0
-1 -8 12 0
-12 -10 -3 0
11 -5 -9 0
1 -2 -11 0
2 9 -3 0
10 2 -7 0
3 11 1 0
-6 12 11 0
4 3 11 0
7 -3 2 0
2 3 4 0
7 -10 9 0
6 11 5 0
12 7 -11 0
4 12 -6 0
5 12 -7 0
-3 7 -11 0
5 6 10 0
6 -2 3 0
11 1 -5 0
-10 -6 11 0
-4 10 -6 0
2 -9 -7 0
8 -7 3 0
-4 -9 -8 0
12 -2 4 0
6 3 -9 0
2 7 4 0
-7 -3 -10 0
7 5 10 0
1 11 -2 0
11 -9 8 0
2 5 -12 0
-8 4 -3 0
-7 12 -8 0
7 -12 9 0
-10 6 1 0
